(set-option :produce-models true)
(set-logic QF_UF)
(declare-fun p14() Bool)
(declare-fun p24() Bool)
(declare-fun p26() Bool)
(declare-fun p2() Bool)
(declare-fun p44() Bool)
(declare-fun p28() Bool)
(declare-fun p41() Bool)
(declare-fun p48() Bool)
(declare-fun p30() Bool)
(declare-fun p49() Bool)
(declare-fun p21() Bool)
(declare-fun p33() Bool)
(declare-fun p8() Bool)
(declare-fun p17() Bool)
(declare-fun p43() Bool)
(declare-fun p35() Bool)
(declare-fun p40() Bool)
(declare-fun p3() Bool)
(declare-fun p42() Bool)
(declare-fun p29() Bool)
(declare-fun p16() Bool)
(declare-fun p5() Bool)
(declare-fun p15() Bool)
(declare-fun p1() Bool)
(declare-fun p31() Bool)
(declare-fun p20() Bool)
(declare-fun p47() Bool)
(declare-fun p11() Bool)
(declare-fun p37() Bool)
(declare-fun p45() Bool)
(declare-fun p27() Bool)
(declare-fun p25() Bool)
(declare-fun p0() Bool)
(declare-fun p7() Bool)
(declare-fun p36() Bool)
(declare-fun p46() Bool)
(declare-fun p34() Bool)
(declare-fun p18() Bool)
(declare-fun p6() Bool)
(declare-fun p19() Bool)
(declare-fun p22() Bool)
(declare-fun p32() Bool)
(declare-fun p39() Bool)
(declare-fun p38() Bool)
(declare-fun p4() Bool)
(declare-fun p10() Bool)
(declare-fun p9() Bool)
(declare-fun p13() Bool)
(declare-fun p12() Bool)
(declare-fun p23() Bool)
(assert
(and (or (not p14) (not p24) (not p26)) (or (not p2) (not p44) p28) (or p44 p41 (not p48)) (or (not p30) (not p2) p49) (or (not p28) (not p21) p33) (or (not p8) (not p17) (not p17)) (or p43 p35 p40) (or (not p3) (not p42) (not p8)) (or (not p29) p16 p5) (or (not p15) (not p29) (not p24)) (or (not p28) (not p1) (not p31)) (or (not p20) (not p17) (not p3)) (or p29 (not p44) (not p47)) (or p11 (not p37) p31) (or (not p15) (not p45) (not p31)) (or (not p27) (not p25) (not p28)) (or p33 (not p0) p7) (or (not p30) (not p20) p26) (or p20 p2 (not p36)) (or p43 p24 p46) (or p34 p33 (not p46)) (or p8 p18 p40) (or (not p6) (not p40) (not p19)) (or (not p20) (not p22) p32) (or p31 (not p3) p48) (or p39 (not p38) p20) (or (not p2) (not p4) (not p40)) (or p11 (not p31) p41) (or p49 (not p38) (not p44)) (or (not p44) p16 p22) (or (not p41) p10 (not p15)) (or p48 (not p8) p41) (or (not p5) (not p45) (not p46)) (or (not p19) p43 p40) (or (not p37) p9 p31) (or (not p4) p18 p16) (or (not p35) p3 (not p36)) (or p49 (not p8) (not p27)) (or (not p13) (not p46) p29) (or p27 (not p24) (not p47)) (or p20 (not p43) (not p43)) (or (not p33) (not p48) (not p9)) (or (not p46) p39 (not p42)) (or (not p47) (not p3) (not p6)) (or p12 (not p20) p42) (or (not p23) p5 p37) (or (not p3) p38 p33) (or p17 p47 (not p29)) (or (not p13) (not p26) (not p7)) (or (not p34) (not p32) (not p13)) (or p49 (not p18) (not p40)) (or p40 p6 p28) (or (not p35) (not p33) p26) (or p42 p30 p39) (or p47 (not p47) p38) (or p23 p35 p20) (or (not p43) (not p27) (not p3)) (or p21 p11 p12) (or p42 (not p45) (not p11)) (or (not p15) p6 p26) (or p27 p15 (not p30)) (or (not p43) p34 p8) (or p17 (not p1) p10) (or (not p45) (not p19) p27) (or p26 p34 (not p11)) (or p8 p48 p41) (or p6 p8 p37) (or p35 p24 p3) (or (not p34) (not p24) p30) (or p19 (not p43) p2) (or p2 p45 (not p30)) (or (not p1) p41 p37) (or p34 (not p35) (not p12)) (or (not p45) p17 p13) (or (not p28) p47 (not p7)) (or (not p2) (not p34) p0) (or (not p38) (not p19) (not p1)) (or (not p41) p16 (not p46)) (or (not p28) (not p24) (not p47)) (or p7 p41 p45) (or (not p48) (not p31) (not p18)) (or p46 p8 (not p25)) (or (not p40) p31 p19) (or (not p46) p45 (not p49)) (or (not p37) p23 p30) (or (not p49) p1 (not p13)) (or (not p17) (not p48) (not p6)) (or p24 p6 (not p4)) (or (not p8) (not p40) (not p17)) (or (not p43) (not p27) p21) (or (not p25) p5 p17) (or (not p10) p10 p9) (or p22 p4 (not p8)) (or p41 (not p27) p33) (or p3 (not p25) (not p46)) (or (not p17) (not p45) (not p29)) (or p49 (not p14) p19) (or p21 (not p18) (not p19)) (or (not p39) (not p6) (not p39)) (or p40 p1 p23) (or (not p13) (not p25) p27) (or (not p6) (not p28) (not p14)) (or (not p5) p3 (not p16)) (or p29 (not p14) (not p1)) (or p47 p22 p15) (or (not p12) (not p26) (not p41)) (or (not p28) p48 p41) (or (not p13) (not p44) p44) (or p35 p19 (not p2)) (or (not p21) (not p32) (not p15)) (or p3 p27 p15) (or p37 (not p22) p42) (or p27 (not p1) (not p0)) (or p11 (not p48) (not p38)) (or (not p7) (not p10) p32) (or p7 (not p5) (not p28)) (or (not p40) p13 (not p37)) (or p13 (not p38) p49) (or p5 (not p13) (not p27)) (or (not p36) p10 p24) (or p48 (not p15) (not p24)) (or p19 p40 p23) (or p28 p4 (not p49)) (or (not p32) p36 p27) (or (not p10) p37 (not p0)) (or p26 p18 (not p26)) (or p48 (not p7) p9) (or (not p20) (not p2) (not p39)) (or p31 p4 (not p0)) (or p8 p14 (not p8)) (or p48 (not p25) p44) (or (not p21) p44 p49) (or p16 p34 p24) (or p48 p5 (not p18)) (or p17 (not p19) p49) (or p6 p27 (not p39)) (or (not p35) p17 p10) (or (not p11) (not p7) (not p37)) (or p11 p0 p20) (or p18 p2 (not p23)) (or p27 p44 (not p29)) (or p45 p46 p8) (or p27 (not p42) p33) (or (not p36) (not p40) (not p16)) (or p2 p17 p8) (or (not p40) (not p25) p3) (or (not p34) (not p0) (not p25)) (or p11 p7 (not p40)) (or p22 p39 (not p29)) (or (not p36) (not p33) p39) (or p46 p26 p16) (or p27 p1 p4) (or (not p0) (not p23) (not p0)) (or p22 (not p39) (not p33)) (or (not p24) p10 p43) (or (not p48) (not p49) (not p46)) (or (not p11) p10 p4) (or p34 (not p42) (not p47)) (or (not p42) p45 (not p41)) (or p38 (not p5) p33) (or (not p5) p45 (not p21)) (or p4 p30 (not p15)) (or p8 (not p4) (not p1)) (or (not p18) (not p4) (not p35)) (or p21 (not p30) (not p41)) (or p26 (not p3) (not p11)) (or p22 (not p8) (not p34)) (or (not p27) p31 p23) (or p31 (not p30) (not p30)) (or p5 (not p40) p39) (or (not p23) p30 p46) (or p14 (not p10) p38) (or (not p31) p20 p9) (or (not p3) (not p8) (not p8)) (or p47 (not p7) p41) (or (not p29) p32 p28) (or (not p14) p31 (not p36)) (or p36 p26 p12) (or p41 (not p23) (not p39)) (or p28 (not p6) (not p46)) (or (not p48) p27 p22) (or p5 (not p46) p33) (or (not p37) (not p42) (not p35)) (or p24 p17 p7) (or (not p35) p21 (not p18)) (or (not p43) p3 (not p49)) (or p3 (not p18) p47) (or p16 (not p26) p45) (or (not p48) (not p33) (not p26)) (or p44 p6 (not p22)) (or (not p11) p33 (not p9)) (or p23 p30 (not p16)) (or (not p49) p0 p49) (or p19 (not p23) p10) (or (not p44) (not p37) (not p49)) (or p1 (not p48) p36) (or (not p19) p44 (not p29)) (or p48 p19 p26) (or p43 p7 (not p31)) (or (not p27) p8 (not p8)) (or (not p22) p10 p8) (or p33 (not p41) p15) (or p35 p18 (not p36)) (or (not p21) p19 p23) (or p36 (not p49) p35) (or p21 p35 (not p19)) (or p1 p10 (not p35)) (or (not p26) (not p2) p14) (or (not p31) (not p10) (not p48)) (or p10 p21 (not p24)))
)
(check-sat)
(get-model)
